
Log started (V11.0.0) Sun May 18 15:03:41 2008

Tried aggregator 1 time.
Reduced MIP has 540 rows, 20001 columns, and 40040 nonzeros.
Presolve time =    0.14 sec.
Clique table members: 500.
MIP emphasis: balance optimality and feasibility.
MIP search method: dynamic search.
Parallel mode: none, using 1 thread.
Root relaxation solution time =    1.64 sec.

        Nodes                                         Cuts/
   Node  Left     Objective  IInf  Best Integer     Best Node    ItCnt     Gap

*     0+    0                        54862.0000     1251.8250      915   97.72%
*     0+    0                         1303.0000     1251.8250      915    3.93%
      0     0     1252.2962    79     1303.0000      Fract: 6     1119    3.89%
      0     0     1264.9613   103     1303.0000      Cuts: 24     2967    2.92%
*     0+    0                         1302.0000     1264.9613     2967    2.84%
      0     2     1264.9613   103     1302.0000     1264.9613     2967    2.84%
    100    92     1265.0000    79     1302.0000     1264.9641     5817    2.84%
    200   157     1265.0000    78     1302.0000     1264.9641    10206    2.84%
    300   218     1265.0000    78     1302.0000     1264.9641    16559    2.84%
    400   283     1265.0000    84     1302.0000     1264.9641    24591    2.84%
    500   346     1265.0062    81     1302.0000     1264.9641    35698    2.84%
    600   376     1281.0000    72     1302.0000     1280.3159    45050    1.67%
    700   407     1281.0000    73     1302.0000     1280.3159    46787    1.67%
    800   434     1281.0000    76     1302.0000     1280.3159    49333    1.67%
    900   456     1281.0000    75     1302.0000     1280.3159    54657    1.67%
   1000   485     1281.0000    79     1302.0000     1280.3159    58900    1.67%
Elapsed time = 235.55 sec. (tree size =  6.11 MB, solutions = 3)
   1100   583     1282.0000    73     1302.0000     1280.3159    61646    1.67%
   1200   683     1282.0000    72     1302.0000     1280.3159    62204    1.67%
   1300   783     1282.0000    74     1302.0000     1280.3159    62602    1.67%
   1400   883     1282.0000    79     1302.0000     1280.3159    64065    1.67%
   1500   983     1282.0000    78     1302.0000     1280.3159    64943    1.67%
   1600  1083     1282.0000    81     1302.0000     1280.3159    65562    1.67%
   1700  1183     1282.0000    77     1302.0000     1280.3159    66963    1.67%
   1800  1283     1282.0000    79     1302.0000     1280.3159    67878    1.67%
   1900  1383     1282.0000    78     1302.0000     1280.3159    70038    1.67%
   2000  1483     1282.0000    77     1302.0000     1280.3159    71370    1.67%
Elapsed time = 276.61 sec. (tree size = 20.66 MB, solutions = 3)
   2100  1582     1282.0000    81     1302.0000     1280.3159    72356    1.67%
   2200  1679     1283.0000    74     1302.0000     1280.3159    76001    1.67%
   2300  1779     1283.0000    67     1302.0000     1280.3159    76594    1.67%
   2400  1879     1283.0000    69     1302.0000     1280.3159    77463    1.67%
   2500  1978     1283.0000    74     1302.0000     1280.3159    78371    1.67%
   2600  2059     1283.0000    71     1302.0000     1280.3159    79450    1.67%
   2700  2154     1284.0000    82     1302.0000     1280.3159    81985    1.67%
   2800  2251     1285.0000    73     1302.0000     1280.3159    83554    1.67%
   2900  2347     1287.0000    67     1302.0000     1280.3159    85306    1.67%
   3000  2437     1288.0000    64     1302.0000     1280.3159    87546    1.67%
Elapsed time = 318.73 sec. (tree size = 34.61 MB, solutions = 3)
   3100  2534     1288.0000    71     1302.0000     1280.3159    89291    1.67%
   3200  2625     1289.0000    64     1302.0000     1280.3159    90981    1.67%
   3300  2719     1290.0000    70     1302.0000     1280.3159    92388    1.67%
   3400  2787     1291.0000    62     1302.0000     1280.3159    96938    1.67%
   3500  2863     1292.0000    64     1302.0000     1280.3159   101339    1.67%
   3600  2921     1293.4244    66     1302.0000     1280.3159   107894    1.67%
   3700  2988     1294.0029    65     1302.0000     1280.3159   114758    1.67%
   3800  3048     1293.0000    66     1302.0000     1280.3159   123518    1.67%
   3900  3113     1294.4923    66     1302.0000     1280.3159   130466    1.67%
   4000  3178     1294.0000    61     1302.0000     1280.3159   139169    1.67%
Elapsed time = 407.23 sec. (tree size = 45.43 MB, solutions = 3)
   4100  3232     1294.0000    66     1302.0000     1280.3159   147270    1.67%
   4200  3294     1295.3999    64     1302.0000     1280.3159   156793    1.67%
   4300  3353     1295.0000    64     1302.0000     1280.3159   163050    1.67%
   4400  3417     1297.0000    64     1302.0000     1280.3159   167740    1.67%
   4500  3472        cutoff           1302.0000     1280.3159   171564    1.67%
   4600  3485    infeasible           1302.0000     1280.3159   175457    1.67%
   4700  3534     1281.0000    71     1302.0000     1280.7281   183681    1.63%
   4800  3634     1281.0000    74     1302.0000     1280.7281   184744    1.63%
   4900  3731     1281.0000    72     1302.0000     1280.7281   191129    1.63%
   5000  3788     1281.0000    72     1302.0000     1280.7281   251487    1.63%
Elapsed time = 656.75 sec. (tree size = 53.90 MB, solutions = 3)
   5100  3885     1282.0000    75     1302.0000     1280.7281   257110    1.63%
   5200  3984     1283.0000    81     1302.0000     1280.7281   259792    1.63%
   5300  4009     1283.0000    72     1302.0000     1280.7281   260593    1.63%
   5400  4036     1283.0000    72     1302.0000     1280.7281   261540    1.63%
   5500  4131     1284.0000    71     1302.0000     1280.7281   263587    1.63%
   5600  4227     1284.0000    79     1302.0000     1280.7281   267700    1.63%
   5700  4315     1286.0340    75     1302.0000     1280.7281   273835    1.63%
   5800  4388     1286.9104    69     1302.0000     1280.7281   280263    1.63%
   5900  4460     1286.0000    75     1302.0000     1280.7281   288398    1.63%
   6000  4533     1287.6738    65     1302.0000     1280.7281   296706    1.63%
Elapsed time = 767.52 sec. (tree size = 65.14 MB, solutions = 3)
   6100  4589     1287.0000    63     1302.0000     1280.7281   304895    1.63%
   6200  4645     1287.0000    64     1302.0000     1280.7281   312260    1.63%
   6300  4712     1288.0000    67     1302.0000     1280.7281   317021    1.63%
   6400  4784     1288.0000    67     1302.0000     1280.7281   319851    1.63%
   6500  4838     1289.3184    66     1302.0000     1280.7281   323694    1.63%
   6600  4896     1289.5603    69     1302.0000     1280.7281   327557    1.63%
   6700  4955     1290.0000    66     1302.0000     1280.7281   331993    1.63%
   6800  5008     1293.0748    61     1302.0000     1280.7281   334555    1.63%
   6900  5062     1292.0000    61     1302.0000     1280.7281   337343    1.63%
   7000  5123     1293.7662    62     1302.0000     1280.7281   340725    1.63%
Elapsed time = 869.78 sec. (tree size = 74.03 MB, solutions = 3)
   7100  5187     1296.0146    59     1302.0000     1280.7281   343330    1.63%
   7200  5271     1295.0000    58     1302.0000     1280.7281   345561    1.63%
   7300  5342     1297.0000    57     1302.0000     1280.7281   348542    1.63%
   7400  5398     1297.0000    60     1302.0000     1280.7281   351703    1.63%
   7500  5447     1287.0000    94     1302.0000     1281.0000   516994    1.61%
   7600  5546     1287.0000    62     1302.0000     1281.0000   519212    1.61%
   7700  5645     1287.0000    70     1302.0000     1281.0000   524024    1.61%
   7800  5739     1287.0000    63     1302.0000     1281.0000   532052    1.61%
   7900  5823     1287.0000    70     1302.0000     1281.0000   554291    1.61%
   8000  5911     1287.0000    78     1302.0000     1281.0000   572771    1.61%
Elapsed time = 1465.36 sec. (tree size = 92.25 MB, solutions = 3)
   8100  5996     1288.0000    73     1302.0000     1281.0000   589735    1.61%
   8200  6081     1288.0000    58     1302.0000     1281.0000   605127    1.61%
   8300  6167     1289.0000    72     1302.0000     1281.0000   615226    1.61%
   8400  6255     1290.0000    58     1302.0000     1281.0000   624257    1.61%
   8500  6323     1290.0000    67     1302.0000     1281.0000   644102    1.61%
   8600  6396     1290.0000    58     1302.0000     1281.0000   664818    1.61%
   8700  6489     1290.0000    60     1302.0000     1281.0000   673044    1.61%
   8800  6574     1290.0000    65     1302.0000     1281.0000   686958    1.61%
   8900  6655     1291.0000    66     1302.0000     1281.0000   696626    1.61%
   9000  6732     1295.5319    76     1302.0000     1281.0000   704029    1.61%
Elapsed time = 1847.06 sec. (tree size = 115.49 MB, solutions = 3)
   9100  6818     1296.2239    66     1302.0000     1281.0000   711135    1.61%
   9200  6899     1295.0000    50     1302.0000     1281.0000   715865    1.61%
   9300  6960     1296.6504    56     1302.0000     1281.0000   723122    1.61%
   9400  7021     1296.0000    60     1302.0000     1281.0000   730142    1.61%
   9500  7086     1299.0000    62     1302.0000     1281.0000   736097    1.61%
   9600  7117        cutoff           1302.0000     1281.0000   741449    1.61%
   9700  7132    infeasible           1302.0000     1281.0000   751784    1.61%
Began writing nodes to disk (directory ./cpxa02652 created)
   9800  7194     1295.0000    45     1302.0000     1281.0000  1367047    1.61%
   9900  7294     1295.0000    57     1302.0000     1281.0000  1368756    1.61%
  10000  7394     1295.0000    71     1302.0000     1281.0000  1374001    1.61%
Elapsed time = 3624.20 sec. (tree size = 136.18 MB, solutions = 3)
Nodefile size =  8.93 MB (5.68 MB after compression)
  10100  7493     1295.0000    68     1302.0000     1281.0000  1384085    1.61%
  10200  7589     1295.0000    60     1302.0000     1281.0000  1398637    1.61%
  10300  7689     1295.0000    58     1302.0000     1281.0000  1410584    1.61%
  10400  7788     1295.0000    53     1302.0000     1281.0000  1425346    1.61%
  10500  7887     1295.0000    58     1302.0000     1281.0000  1434787    1.61%
  10600  7985     1295.0000    58     1302.0000     1281.0000  1443814    1.61%
  10700  8082     1295.0000    56     1302.0000     1281.0000  1452696    1.61%
  10800  8178     1295.0000    55     1302.0000     1281.0000  1459857    1.61%
  10900  8265     1295.0000    72     1302.0000     1281.0000  1466858    1.61%
  11000  8347        cutoff           1302.0000     1281.0000  1471020    1.61%
Elapsed time = 3997.28 sec. (tree size = 170.59 MB, solutions = 3)
Nodefile size = 43.25 MB (31.60 MB after compression)
  11100  8411     1299.0000    55     1302.0000     1281.0000  1478158    1.61%
  11200  8444     1301.0000    50     1302.0000     1281.0000  1489047    1.61%
  11300  8478     1301.0000    56     1302.0000     1281.0000  1522465    1.61%
  11400  8532     1295.0000   380     1302.0000     1281.0000  1824727    1.61%
  11500  8632     1295.0000    58     1302.0000     1281.0000  1826396    1.61%
  11600  8728     1291.0000    59     1302.0000     1281.0000  1843959    1.61%
  11700  8828     1291.0000    55     1302.0000     1281.0000  1845569    1.61%
  11800  8926     1292.0000    82     1302.0000     1281.0000  1985783    1.61%
  11900  9026     1292.0000    65     1302.0000     1281.0000  1987586    1.61%
  12000  9124     1293.0000    69     1302.0000     1281.0000  2065766    1.61%
Elapsed time = 6073.50 sec. (tree size = 200.17 MB, solutions = 3)
Nodefile size = 72.70 MB (55.03 MB after compression)
  12100  9224     1293.0000    65     1302.0000     1281.0000  2067177    1.61%
  12200  9322     1293.0000    61     1302.0000     1281.0000  2223257    1.61%
  12300  9422     1293.0000    61     1302.0000     1281.0000  2224993    1.61%
  12400  9520     1292.0000    60     1302.0000     1281.0000  2262794    1.61%
  12500  9619     1292.0000    61     1302.0000     1281.0000  2264788    1.61%

Cover cuts applied:  2319
Mixed integer rounding cuts applied:  27
Gomory fractional cuts applied:  15

Solution pool: 3 solutions saved.

MIP - Time limit exceeded, integer feasible:  Objective = 1.3020000000e+003
Current MIP best bound = 1.2810000000e+003 (gap = 21, 1.61%)
Solution time = 7200.34 sec.  Iterations = 2309162  Nodes = 12510 (9628)


Incumbent solution
Variable Name           Solution Value
Cmax                       1302.000000
X_1_17                        1.000000
X_2_40                        1.000000
X_3_17                        1.000000
X_4_40                        1.000000
X_5_25                        1.000000
X_6_18                        1.000000
X_7_9                         1.000000
X_8_32                        1.000000
X_9_14                        1.000000
X_10_17                       1.000000
X_11_17                       1.000000
X_12_19                       1.000000
X_13_26                       1.000000
X_14_38                       1.000000
X_15_27                       1.000000
X_16_1                        1.000000
X_17_16                       1.000000
X_18_18                       1.000000
X_19_20                       1.000000
X_20_30                       1.000000
X_21_20                       1.000000
X_22_18                       1.000000
X_23_23                       1.000000
X_24_30                       1.000000
X_25_22                       1.000000
X_26_22                       1.000000
X_27_34                       1.000000
X_28_10                       1.000000
X_29_5                        1.000000
X_30_37                       1.000000
X_31_40                       1.000000
X_32_6                        1.000000
X_33_2                        1.000000
X_34_5                        1.000000
X_35_5                        1.000000
X_36_40                       1.000000
X_37_34                       1.000000
X_38_39                       1.000000
X_39_20                       1.000000
X_40_34                       1.000000
X_41_24                       1.000000
X_42_16                       1.000000
X_43_18                       1.000000
X_44_31                       1.000000
X_45_5                        1.000000
X_46_4                        1.000000
X_47_7                        1.000000
X_48_4                        1.000000
X_49_20                       1.000000
X_50_38                       1.000000
X_51_24                       1.000000
X_52_32                       1.000000
X_53_40                       1.000000
X_54_11                       1.000000
X_55_25                       1.000000
X_56_17                       1.000000
X_57_21                       1.000000
X_58_18                       1.000000
X_59_20                       1.000000
X_60_16                       1.000000
X_61_19                       1.000000
X_62_35                       1.000000
X_63_36                       1.000000
X_64_22                       1.000000
X_65_15                       1.000000
X_66_3                        1.000000
X_67_20                       1.000000
X_68_6                        1.000000
X_69_33                       1.000000
X_70_37                       1.000000
X_71_24                       1.000000
X_72_8                        1.000000
X_73_9                        1.000000
X_74_17                       1.000000
X_75_15                       1.000000
X_76_31                       1.000000
X_77_23                       1.000000
X_78_32                       1.000000
X_79_17                       1.000000
X_80_6                        1.000000
X_81_19                       1.000000
X_82_36                       1.000000
X_83_25                       1.000000
X_84_14                       1.000000
X_85_33                       1.000000
X_86_5                        1.000000
X_87_25                       1.000000
X_88_27                       1.000000
X_89_8                        1.000000
X_90_14                       1.000000
X_91_30                       1.000000
X_92_27                       1.000000
X_93_3                        1.000000
X_94_28                       1.000000
X_95_15                       1.000000
X_96_32                       1.000000
X_97_1                        1.000000
X_98_16                       1.000000
X_99_35                       1.000000
X_100_9                       1.000000
X_101_33                      1.000000
X_102_29                      1.000000
X_103_32                      1.000000
X_104_11                      1.000000
X_105_40                      1.000000
X_106_27                      1.000000
X_107_16                      1.000000
X_108_13                      1.000000
X_109_17                      1.000000
X_110_34                      1.000000
X_111_13                      1.000000
X_112_2                       1.000000
X_113_13                      1.000000
X_114_30                      1.000000
X_115_16                      1.000000
X_116_29                      1.000000
X_117_11                      1.000000
X_118_9                       1.000000
X_119_9                       1.000000
X_120_23                      1.000000
X_121_12                      1.000000
X_122_3                       1.000000
X_123_14                      1.000000
X_124_32                      1.000000
X_125_19                      1.000000
X_126_3                       1.000000
X_127_5                       1.000000
X_128_27                      1.000000
X_129_6                       1.000000
X_130_6                       1.000000
X_131_1                       1.000000
X_132_2                       1.000000
X_133_9                       1.000000
X_134_35                      1.000000
X_135_23                      1.000000
X_136_15                      1.000000
X_137_33                      1.000000
X_138_11                      1.000000
X_139_19                      1.000000
X_140_11                      1.000000
X_141_3                       1.000000
X_142_24                      1.000000
X_143_21                      1.000000
X_144_18                      1.000000
X_145_35                      1.000000
X_146_2                       1.000000
X_147_23                      1.000000
X_148_11                      1.000000
X_149_39                      1.000000
X_150_40                      1.000000
X_151_21                      1.000000
X_152_10                      1.000000
X_153_28                      1.000000
X_154_10                      1.000000
X_155_38                      1.000000
X_156_8                       1.000000
X_157_23                      1.000000
X_158_9                       1.000000
X_159_7                       1.000000
X_160_8                       1.000000
X_161_36                      1.000000
X_162_33                      1.000000
X_163_31                      1.000000
X_164_40                      1.000000
X_165_8                       1.000000
X_166_6                       1.000000
X_167_28                      1.000000
X_168_24                      1.000000
X_169_32                      1.000000
X_170_19                      1.000000
X_171_38                      1.000000
X_172_15                      1.000000
X_173_29                      1.000000
X_174_28                      1.000000
X_175_30                      1.000000
X_176_31                      1.000000
X_177_1                       1.000000
X_178_27                      1.000000
X_179_2                       1.000000
X_180_21                      1.000000
X_181_11                      1.000000
X_182_7                       1.000000
X_183_22                      1.000000
X_184_16                      1.000000
X_185_29                      1.000000
X_186_28                      1.000000
X_187_37                      1.000000
X_188_37                      1.000000
X_189_13                      1.000000
X_190_14                      1.000000
X_191_14                      1.000000
X_192_8                       1.000000
X_193_14                      1.000000
X_194_39                      1.000000
X_195_35                      1.000000
X_196_21                      1.000000
X_197_30                      1.000000
X_198_39                      1.000000
X_199_12                      1.000000
X_200_27                      1.000000
X_201_3                       1.000000
X_202_14                      1.000000
X_203_23                      1.000000
X_204_1                       1.000000
X_205_33                      1.000000
X_206_27                      1.000000
X_207_9                       1.000000
X_208_40                      1.000000
X_209_29                      1.000000
X_210_4                       1.000000
X_211_3                       1.000000
X_212_31                      1.000000
X_213_36                      1.000000
X_214_26                      1.000000
X_215_12                      1.000000
X_216_1                       1.000000
X_217_34                      1.000000
X_218_36                      1.000000
X_219_13                      1.000000
X_220_13                      1.000000
X_221_19                      1.000000
X_222_33                      1.000000
X_223_23                      1.000000
X_224_16                      1.000000
X_225_2                       1.000000
X_226_32                      1.000000
X_227_21                      1.000000
X_228_11                      1.000000
X_229_8                       1.000000
X_230_36                      1.000000
X_231_8                       1.000000
X_232_39                      1.000000
X_233_35                      1.000000
X_234_37                      1.000000
X_235_32                      1.000000
X_236_36                      1.000000
X_237_6                       1.000000
X_238_5                       1.000000
X_239_31                      1.000000
X_240_33                      1.000000
X_241_39                      1.000000
X_242_12                      1.000000
X_243_22                      1.000000
X_244_20                      1.000000
X_245_8                       1.000000
X_246_37                      1.000000
X_247_38                      1.000000
X_248_6                       1.000000
X_249_39                      1.000000
X_250_17                      1.000000
X_251_17                      1.000000
X_252_27                      1.000000
X_253_3                       1.000000
X_254_10                      1.000000
X_255_26                      1.000000
X_256_13                      1.000000
X_257_4                       1.000000
X_258_29                      1.000000
X_259_5                       1.000000
X_260_36                      1.000000
X_261_37                      1.000000
X_262_6                       1.000000
X_263_7                       1.000000
X_264_11                      1.000000
X_265_31                      1.000000
X_266_7                       1.000000
X_267_21                      1.000000
X_268_16                      1.000000
X_269_3                       1.000000
X_270_29                      1.000000
X_271_25                      1.000000
X_272_15                      1.000000
X_273_20                      1.000000
X_274_10                      1.000000
X_275_16                      1.000000
X_276_19                      1.000000
X_277_40                      1.000000
X_278_17                      1.000000
X_279_21                      1.000000
X_280_24                      1.000000
X_281_34                      1.000000
X_282_12                      1.000000
X_283_26                      1.000000
X_284_20                      1.000000
X_285_39                      1.000000
X_286_26                      1.000000
X_287_7                       1.000000
X_288_7                       1.000000
X_289_38                      1.000000
X_290_18                      1.000000
X_291_16                      1.000000
X_292_13                      1.000000
X_293_28                      1.000000
X_294_30                      1.000000
X_295_4                       1.000000
X_296_39                      1.000000
X_297_29                      1.000000
X_298_2                       1.000000
X_299_39                      1.000000
X_300_21                      1.000000
X_301_21                      1.000000
X_302_12                      1.000000
X_303_5                       1.000000
X_304_34                      1.000000
X_305_36                      1.000000
X_306_12                      1.000000
X_307_35                      1.000000
X_308_9                       1.000000
X_309_22                      1.000000
X_310_6                       1.000000
X_311_1                       1.000000
X_312_3                       1.000000
X_313_21                      1.000000
X_314_19                      1.000000
X_315_16                      1.000000
X_316_38                      1.000000
X_317_23                      1.000000
X_318_19                      1.000000
X_319_38                      1.000000
X_320_1                       1.000000
X_321_5                       1.000000
X_322_26                      1.000000
X_323_14                      1.000000
X_324_24                      1.000000
X_325_20                      1.000000
X_326_3                       1.000000
X_327_37                      1.000000
X_328_34                      1.000000
X_329_10                      1.000000
X_330_19                      1.000000
X_331_28                      1.000000
X_332_1                       1.000000
X_333_29                      1.000000
X_334_22                      1.000000
X_335_32                      1.000000
X_336_37                      1.000000
X_337_11                      1.000000
X_338_26                      1.000000
X_339_34                      1.000000
X_340_34                      1.000000
X_341_7                       1.000000
X_342_36                      1.000000
X_343_25                      1.000000
X_344_24                      1.000000
X_345_31                      1.000000
X_346_15                      1.000000
X_347_7                       1.000000
X_348_20                      1.000000
X_349_14                      1.000000
X_350_38                      1.000000
X_351_13                      1.000000
X_352_10                      1.000000
X_353_6                       1.000000
X_354_39                      1.000000
X_355_28                      1.000000
X_356_28                      1.000000
X_357_9                       1.000000
X_358_18                      1.000000
X_359_37                      1.000000
X_360_11                      1.000000
X_361_37                      1.000000
X_362_28                      1.000000
X_363_25                      1.000000
X_364_25                      1.000000
X_365_4                       1.000000
X_366_29                      1.000000
X_367_26                      1.000000
X_368_38                      1.000000
X_369_40                      1.000000
X_370_29                      1.000000
X_371_28                      1.000000
X_372_36                      1.000000
X_373_32                      1.000000
X_374_25                      1.000000
X_375_4                       1.000000
X_376_24                      1.000000
X_377_7                       1.000000
X_378_22                      1.000000
X_379_30                      1.000000
X_380_12                      1.000000
X_381_32                      1.000000
X_382_15                      1.000000
X_383_21                      1.000000
X_384_38                      1.000000
X_385_5                       1.000000
X_386_30                      1.000000
X_387_14                      1.000000
X_388_7                       1.000000
X_389_24                      1.000000
X_390_23                      1.000000
X_391_7                       1.000000
X_392_19                      1.000000
X_393_13                      1.000000
X_394_14                      1.000000
X_395_10                      1.000000
X_396_2                       1.000000
X_397_33                      1.000000
X_398_8                       1.000000
X_399_34                      1.000000
X_400_21                      1.000000
X_401_12                      1.000000
X_402_1                       1.000000
X_403_4                       1.000000
X_404_15                      1.000000
X_405_10                      1.000000
X_406_13                      1.000000
X_407_29                      1.000000
X_408_10                      1.000000
X_409_31                      1.000000
X_410_24                      1.000000
X_411_26                      1.000000
X_412_4                       1.000000
X_413_25                      1.000000
X_414_38                      1.000000
X_415_18                      1.000000
X_416_31                      1.000000
X_417_4                       1.000000
X_418_37                      1.000000
X_419_32                      1.000000
X_420_10                      1.000000
X_421_27                      1.000000
X_422_2                       1.000000
X_423_29                      1.000000
X_424_2                       1.000000
X_425_28                      1.000000
X_426_5                       1.000000
X_427_8                       1.000000
X_428_11                      1.000000
X_429_27                      1.000000
X_430_35                      1.000000
X_431_2                       1.000000
X_432_14                      1.000000
X_433_8                       1.000000
X_434_9                       1.000000
X_435_1                       1.000000
X_436_34                      1.000000
X_437_18                      1.000000
X_438_22                      1.000000
X_439_31                      1.000000
X_440_22                      1.000000
X_441_11                      1.000000
X_442_18                      1.000000
X_443_23                      1.000000
X_444_10                      1.000000
X_445_24                      1.000000
X_446_20                      1.000000
X_447_33                      1.000000
X_448_25                      1.000000
X_449_30                      1.000000
X_450_35                      1.000000
X_451_26                      1.000000
X_452_23                      1.000000
X_453_36                      1.000000
X_454_3                       1.000000
X_455_13                      1.000000
X_456_33                      1.000000
X_457_9                       1.000000
X_458_6                       1.000000
X_459_22                      1.000000
X_460_16                      1.000000
X_461_27                      1.000000
X_462_31                      1.000000
X_463_36                      1.000000
X_464_39                      1.000000
X_465_30                      1.000000
X_466_15                      1.000000
X_467_4                       1.000000
X_468_33                      1.000000
X_469_12                      1.000000
X_470_30                      1.000000
X_471_37                      1.000000
X_472_12                      1.000000
X_473_22                      1.000000
X_474_35                      1.000000
X_475_2                       1.000000
X_476_15                      1.000000
X_477_26                      1.000000
X_478_23                      1.000000
X_479_34                      1.000000
X_480_26                      1.000000
X_481_10                      1.000000
X_482_40                      1.000000
X_483_25                      1.000000
X_484_33                      1.000000
X_485_1                       1.000000
X_486_17                      1.000000
X_487_22                      1.000000
X_488_39                      1.000000
X_489_4                       1.000000
X_490_15                      1.000000
X_491_28                      1.000000
X_492_31                      1.000000
X_493_35                      1.000000
X_494_12                      1.000000
X_495_25                      1.000000
X_496_4                       1.000000
X_497_18                      1.000000
X_498_35                      1.000000
X_499_24                      1.000000
X_500_6                       1.000000
All other variables in the range 1-20001 are 0.
